robust/generate/spp_dkp_Lefebvre_et_al_2026/src/shortest_path_7_2.kp
44
169

[4.15 0.52 3.7 1.79 1.79 3.03 1.96 2.03 2.53 3.53 4.77 2.27 2.13 0.56 1.08 4.76 4.69 4.38 3.21 1.06 3.17 0.69 2.28 4.34 1.28 3.3 4.29 0.74 2.8 0.79 0.86 0.52 1.01 2.26]

[77 11 77 60 43 49 76 61 89 51 39 58 30 7 29 17 74 56 11 28 57 88 80 100 97 84 41 51 22 96 26 29 54 95]
