robust/generate/spp_dkp_Lefebvre_et_al_2026/src/shortest_path_7_2.lp
\ Model sp_7_2
\ LP format - for model browsing. Use MPS format to capture full model detail.
\ Signature: 0xc8ba32e33faaac64
Minimize
  28.6 y[0,1] + 58.14 y[0,2] + 38.21 y[0,3] + 64.76 y[0,4] + 57.27 y[0,5]
   + 68.01 y[0,6] + 28.6 y[1,0] + 64.51 y[1,3] + 58.14 y[2,0]
   + 34.53 y[2,3] + 29.83 y[2,4] + 16.12 y[2,5] + 61.68 y[2,6]
   + 38.21 y[3,0] + 64.51 y[3,1] + 34.53 y[3,2] + 27.31 y[3,4]
   + 24.41 y[3,5] + 36.12 y[3,6] + 64.76 y[4,0] + 29.83 y[4,2]
   + 27.31 y[4,3] + 14.21 y[4,5] + 35.06 y[4,6] + 57.27 y[5,0]
   + 16.12 y[5,2] + 24.41 y[5,3] + 14.21 y[5,4] + 45.88 y[5,6]
   + 68.01 y[6,0] + 61.68 y[6,2] + 36.12 y[6,3] + 35.06 y[6,4]
   + 45.88 y[6,5] + 2.86 r[0,1] + 5.814 r[0,2] + 3.821 r[0,3]
   + 6.476 r[0,4] + 5.727 r[0,5] + 6.801 r[0,6] + 2.86 r[1,0]
   + 6.451 r[1,3] + 5.814 r[2,0] + 3.453 r[2,3] + 2.983 r[2,4]
   + 1.612 r[2,5] + 6.168 r[2,6] + 3.821 r[3,0] + 6.451 r[3,1]
   + 3.453 r[3,2] + 2.731 r[3,4] + 2.441 r[3,5] + 3.612 r[3,6]
   + 6.476 r[4,0] + 2.983 r[4,2] + 2.731 r[4,3] + 1.421 r[4,5]
   + 3.506 r[4,6] + 5.727 r[5,0] + 1.612 r[5,2] + 2.441 r[5,3]
   + 1.421 r[5,4] + 4.588 r[5,6] + 6.801 r[6,0] + 6.168 r[6,2]
   + 3.612 r[6,3] + 3.506 r[6,4] + 4.588 r[6,5]
Subject To
 flow_cons_inner_nodes[0]: - y[0,1] - y[0,2] - y[0,3] - y[0,4] - y[0,5]
   - y[0,6] + y[1,0] + y[2,0] + y[3,0] + y[4,0] + y[5,0] + y[6,0] = 0
 flow_cons_inner_nodes[2]: y[0,2] - y[2,0] - y[2,3] - y[2,4] - y[2,5]
   - y[2,6] + y[3,2] + y[4,2] + y[5,2] + y[6,2] = 0
 flow_cons_inner_nodes[3]: y[0,3] + y[1,3] + y[2,3] - y[3,0] - y[3,1]
   - y[3,2] - y[3,4] - y[3,5] - y[3,6] + y[4,3] + y[5,3] + y[6,3] = 0
 flow_cons_inner_nodes[5]: y[0,5] + y[2,5] + y[3,5] + y[4,5] - y[5,0]
   - y[5,2] - y[5,3] - y[5,4] - y[5,6] + y[6,5] = 0
 flow_cons_inner_nodes[6]: y[0,6] + y[2,6] + y[3,6] + y[4,6] + y[5,6]
   - y[6,0] - y[6,2] - y[6,3] - y[6,4] - y[6,5] = 0
 flow_cons_source: - y[0,1] + y[1,0] + y[1,3] - y[3,1] = 1
 flow_cons_target: y[0,4] + y[2,4] + y[3,4] - y[4,0] - y[4,2] - y[4,3]
   - y[4,5] - y[4,6] + y[5,4] + y[6,4] = 1
 primal_lower: - 4.15 y[0,1] - 0.52 y[0,2] - 3.7 y[0,3] - 1.79 y[0,4]
   - 1.79 y[0,5] - 3.03 y[0,6] - 1.96 y[1,0] - 2.03 y[1,3] - 2.53 y[2,0]
   - 3.53 y[2,3] - 4.77 y[2,4] - 2.27 y[2,5] - 2.13 y[2,6] - 0.56 y[3,0]
   - 1.08 y[3,1] - 4.76 y[3,2] - 4.69 y[3,4] - 4.38 y[3,5] - 3.21 y[3,6]
   - 1.06 y[4,0] - 3.17 y[4,2] - 0.69 y[4,3] - 2.28 y[4,5] - 4.34 y[4,6]
   - 1.28 y[5,0] - 3.3 y[5,2] - 4.29 y[5,3] - 0.74 y[5,4] - 2.8 y[5,6]
   - 0.79 y[6,0] - 0.86 y[6,2] - 0.52 y[6,3] - 1.01 y[6,4] - 2.26 y[6,5]
   + 77 u[0,1] + 11 u[0,2] + 77 u[0,3] + 60 u[0,4] + 43 u[0,5] + 49 u[0,6]
   + 76 u[1,0] + 61 u[1,3] + 89 u[2,0] + 51 u[2,3] + 39 u[2,4] + 58 u[2,5]
   + 30 u[2,6] + 7 u[3,0] + 29 u[3,1] + 17 u[3,2] + 74 u[3,4] + 56 u[3,5]
   + 11 u[3,6] + 28 u[4,0] + 57 u[4,2] + 88 u[4,3] + 80 u[4,5] + 100 u[4,6]
   + 97 u[5,0] + 84 u[5,2] + 41 u[5,3] + 51 u[5,4] + 22 u[5,6] + 96 u[6,0]
   + 26 u[6,2] + 29 u[6,3] + 54 u[6,4] + 95 u[6,5] <= 169
 mccormick1[0,1]: - u[0,1] + r[0,1] <= 0
 mccormick1[0,2]: - u[0,2] + r[0,2] <= 0
 mccormick1[0,3]: - u[0,3] + r[0,3] <= 0
 mccormick1[0,4]: - u[0,4] + r[0,4] <= 0
 mccormick1[0,5]: - u[0,5] + r[0,5] <= 0
 mccormick1[0,6]: - u[0,6] + r[0,6] <= 0
 mccormick1[1,0]: - u[1,0] + r[1,0] <= 0
 mccormick1[1,3]: - u[1,3] + r[1,3] <= 0
 mccormick1[2,0]: - u[2,0] + r[2,0] <= 0
 mccormick1[2,3]: - u[2,3] + r[2,3] <= 0
 mccormick1[2,4]: - u[2,4] + r[2,4] <= 0
 mccormick1[2,5]: - u[2,5] + r[2,5] <= 0
 mccormick1[2,6]: - u[2,6] + r[2,6] <= 0
 mccormick1[3,0]: - u[3,0] + r[3,0] <= 0
 mccormick1[3,1]: - u[3,1] + r[3,1] <= 0
 mccormick1[3,2]: - u[3,2] + r[3,2] <= 0
 mccormick1[3,4]: - u[3,4] + r[3,4] <= 0
 mccormick1[3,5]: - u[3,5] + r[3,5] <= 0
 mccormick1[3,6]: - u[3,6] + r[3,6] <= 0
 mccormick1[4,0]: - u[4,0] + r[4,0] <= 0
 mccormick1[4,2]: - u[4,2] + r[4,2] <= 0
 mccormick1[4,3]: - u[4,3] + r[4,3] <= 0
 mccormick1[4,5]: - u[4,5] + r[4,5] <= 0
 mccormick1[4,6]: - u[4,6] + r[4,6] <= 0
 mccormick1[5,0]: - u[5,0] + r[5,0] <= 0
 mccormick1[5,2]: - u[5,2] + r[5,2] <= 0
 mccormick1[5,3]: - u[5,3] + r[5,3] <= 0
 mccormick1[5,4]: - u[5,4] + r[5,4] <= 0
 mccormick1[5,6]: - u[5,6] + r[5,6] <= 0
 mccormick1[6,0]: - u[6,0] + r[6,0] <= 0
 mccormick1[6,2]: - u[6,2] + r[6,2] <= 0
 mccormick1[6,3]: - u[6,3] + r[6,3] <= 0
 mccormick1[6,4]: - u[6,4] + r[6,4] <= 0
 mccormick1[6,5]: - u[6,5] + r[6,5] <= 0
 mccormick2[0,1]: - y[0,1] + r[0,1] <= 0
 mccormick2[0,2]: - y[0,2] + r[0,2] <= 0
 mccormick2[0,3]: - y[0,3] + r[0,3] <= 0
 mccormick2[0,4]: - y[0,4] + r[0,4] <= 0
 mccormick2[0,5]: - y[0,5] + r[0,5] <= 0
 mccormick2[0,6]: - y[0,6] + r[0,6] <= 0
 mccormick2[1,0]: - y[1,0] + r[1,0] <= 0
 mccormick2[1,3]: - y[1,3] + r[1,3] <= 0
 mccormick2[2,0]: - y[2,0] + r[2,0] <= 0
 mccormick2[2,3]: - y[2,3] + r[2,3] <= 0
 mccormick2[2,4]: - y[2,4] + r[2,4] <= 0
 mccormick2[2,5]: - y[2,5] + r[2,5] <= 0
 mccormick2[2,6]: - y[2,6] + r[2,6] <= 0
 mccormick2[3,0]: - y[3,0] + r[3,0] <= 0
 mccormick2[3,1]: - y[3,1] + r[3,1] <= 0
 mccormick2[3,2]: - y[3,2] + r[3,2] <= 0
 mccormick2[3,4]: - y[3,4] + r[3,4] <= 0
 mccormick2[3,5]: - y[3,5] + r[3,5] <= 0
 mccormick2[3,6]: - y[3,6] + r[3,6] <= 0
 mccormick2[4,0]: - y[4,0] + r[4,0] <= 0
 mccormick2[4,2]: - y[4,2] + r[4,2] <= 0
 mccormick2[4,3]: - y[4,3] + r[4,3] <= 0
 mccormick2[4,5]: - y[4,5] + r[4,5] <= 0
 mccormick2[4,6]: - y[4,6] + r[4,6] <= 0
 mccormick2[5,0]: - y[5,0] + r[5,0] <= 0
 mccormick2[5,2]: - y[5,2] + r[5,2] <= 0
 mccormick2[5,3]: - y[5,3] + r[5,3] <= 0
 mccormick2[5,4]: - y[5,4] + r[5,4] <= 0
 mccormick2[5,6]: - y[5,6] + r[5,6] <= 0
 mccormick2[6,0]: - y[6,0] + r[6,0] <= 0
 mccormick2[6,2]: - y[6,2] + r[6,2] <= 0
 mccormick2[6,3]: - y[6,3] + r[6,3] <= 0
 mccormick2[6,4]: - y[6,4] + r[6,4] <= 0
 mccormick2[6,5]: - y[6,5] + r[6,5] <= 0
 mccormick3[0,1]: - y[0,1] - u[0,1] + r[0,1] >= -1
 mccormick3[0,2]: - y[0,2] - u[0,2] + r[0,2] >= -1
 mccormick3[0,3]: - y[0,3] - u[0,3] + r[0,3] >= -1
 mccormick3[0,4]: - y[0,4] - u[0,4] + r[0,4] >= -1
 mccormick3[0,5]: - y[0,5] - u[0,5] + r[0,5] >= -1
 mccormick3[0,6]: - y[0,6] - u[0,6] + r[0,6] >= -1
 mccormick3[1,0]: - y[1,0] - u[1,0] + r[1,0] >= -1
 mccormick3[1,3]: - y[1,3] - u[1,3] + r[1,3] >= -1
 mccormick3[2,0]: - y[2,0] - u[2,0] + r[2,0] >= -1
 mccormick3[2,3]: - y[2,3] - u[2,3] + r[2,3] >= -1
 mccormick3[2,4]: - y[2,4] - u[2,4] + r[2,4] >= -1
 mccormick3[2,5]: - y[2,5] - u[2,5] + r[2,5] >= -1
 mccormick3[2,6]: - y[2,6] - u[2,6] + r[2,6] >= -1
 mccormick3[3,0]: - y[3,0] - u[3,0] + r[3,0] >= -1
 mccormick3[3,1]: - y[3,1] - u[3,1] + r[3,1] >= -1
 mccormick3[3,2]: - y[3,2] - u[3,2] + r[3,2] >= -1
 mccormick3[3,4]: - y[3,4] - u[3,4] + r[3,4] >= -1
 mccormick3[3,5]: - y[3,5] - u[3,5] + r[3,5] >= -1
 mccormick3[3,6]: - y[3,6] - u[3,6] + r[3,6] >= -1
 mccormick3[4,0]: - y[4,0] - u[4,0] + r[4,0] >= -1
 mccormick3[4,2]: - y[4,2] - u[4,2] + r[4,2] >= -1
 mccormick3[4,3]: - y[4,3] - u[4,3] + r[4,3] >= -1
 mccormick3[4,5]: - y[4,5] - u[4,5] + r[4,5] >= -1
 mccormick3[4,6]: - y[4,6] - u[4,6] + r[4,6] >= -1
 mccormick3[5,0]: - y[5,0] - u[5,0] + r[5,0] >= -1
 mccormick3[5,2]: - y[5,2] - u[5,2] + r[5,2] >= -1
 mccormick3[5,3]: - y[5,3] - u[5,3] + r[5,3] >= -1
 mccormick3[5,4]: - y[5,4] - u[5,4] + r[5,4] >= -1
 mccormick3[5,6]: - y[5,6] - u[5,6] + r[5,6] >= -1
 mccormick3[6,0]: - y[6,0] - u[6,0] + r[6,0] >= -1
 mccormick3[6,2]: - y[6,2] - u[6,2] + r[6,2] >= -1
 mccormick3[6,3]: - y[6,3] - u[6,3] + r[6,3] >= -1
 mccormick3[6,4]: - y[6,4] - u[6,4] + r[6,4] >= -1
 mccormick3[6,5]: - y[6,5] - u[6,5] + r[6,5] >= -1
Bounds
Binaries
 y[0,1] y[0,2] y[0,3] y[0,4] y[0,5] y[0,6] y[1,0] y[1,3] y[2,0] y[2,3]
 y[2,4] y[2,5] y[2,6] y[3,0] y[3,1] y[3,2] y[3,4] y[3,5] y[3,6] y[4,0]
 y[4,2] y[4,3] y[4,5] y[4,6] y[5,0] y[5,2] y[5,3] y[5,4] y[5,6] y[6,0]
 y[6,2] y[6,3] y[6,4] y[6,5] u[0,1] u[0,2] u[0,3] u[0,4] u[0,5] u[0,6]
 u[1,0] u[1,3] u[2,0] u[2,3] u[2,4] u[2,5] u[2,6] u[3,0] u[3,1] u[3,2]
 u[3,4] u[3,5] u[3,6] u[4,0] u[4,2] u[4,3] u[4,5] u[4,6] u[5,0] u[5,2]
 u[5,3] u[5,4] u[5,6] u[6,0] u[6,2] u[6,3] u[6,4] u[6,5] r[0,1] r[0,2]
 r[0,3] r[0,4] r[0,5] r[0,6] r[1,0] r[1,3] r[2,0] r[2,3] r[2,4] r[2,5]
 r[2,6] r[3,0] r[3,1] r[3,2] r[3,4] r[3,5] r[3,6] r[4,0] r[4,2] r[4,3]
 r[4,5] r[4,6] r[5,0] r[5,2] r[5,3] r[5,4] r[5,6] r[6,0] r[6,2] r[6,3]
 r[6,4] r[6,5]
End
